p cnf 123 439
-3 1 0
-3 -2 0
-1 2 3 0
6 4 0
6 -5 0
-4 5 -6 0
-7 3 0
-7 6 0
-3 -6 7 0
-8 -9 -10 0
8 9 -10 0
-8 9 10 0
8 -9 10 0
12 2 0
12 -11 0
-2 11 -12 0
-13 -10 0
-13 -12 0
10 12 13 0
-13 14 -15 0
13 -14 -15 0
-13 -14 15 0
13 14 15 0
15 -12 -16 0
-15 12 -16 0
15 12 16 0
-15 -12 16 0
18 -5 0
18 -17 0
5 17 -18 0
-16 18 -19 0
16 -18 -19 0
-16 -18 19 0
16 18 19 0
7 -19 -20 0
-7 19 -20 0
7 19 20 0
-7 -19 20 0
22 9 0
22 -21 0
-9 21 -22 0
-23 18 0
-23 -22 0
-18 22 23 0
14 -23 -24 0
-14 23 -24 0
14 23 24 0
-14 -23 24 0
26 -25 0
26 2 0
25 -2 -26 0
-24 -26 -27 0
24 26 -27 0
-24 26 27 0
24 -26 27 0
28 -27 0
28 -23 0
27 23 -28 0
29 9 0
29 21 0
-9 -21 -29 0
5 29 -30 0
-5 -29 -30 0
5 -29 30 0
-5 29 30 0
-31 30 0
-31 25 0
-30 -25 31 0
-28 -31 -32 0
28 31 -32 0
-28 31 32 0
28 -31 32 0
33 31 0
33 13 0
-31 -13 -33 0
-32 -33 -34 0
32 33 -34 0
-32 33 34 0
32 -33 34 0
-20 -34 -35 0
20 34 -35 0
-20 34 35 0
20 -34 35 0
36 -4 0
36 2 0
4 -2 -36 0
38 -27 0
38 -30 0
27 30 -38 0
-39 37 0
-39 38 0
-37 -38 39 0
-40 36 0
-40 -39 0
-36 39 40 0
-41 -9 0
-41 -21 0
9 21 41 0
42 -18 0
42 41 0
18 -41 -42 0
43 -5 -44 0
-43 5 -44 0
43 5 44 0
-43 -5 44 0
-45 44 0
-45 25 0
-44 -25 45 0
-46 -45 0
-46 -2 0
45 2 46 0
-42 46 -47 0
42 -46 -47 0
-42 -46 47 0
42 46 47 0
48 -9 0
48 25 0
9 -25 -48 0
49 -48 0
49 -44 0
48 44 -49 0
-49 -25 -50 0
49 25 -50 0
-49 25 50 0
49 -25 50 0
-51 8 0
-51 -48 0
-8 48 51 0
52 -50 0
52 51 0
50 -51 -52 0
-52 38 -53 0
52 -38 -53 0
-52 -38 53 0
52 38 53 0
47 53 -54 0
-47 -53 -54 0
47 -53 54 0
-47 53 54 0
-40 54 -55 0
40 -54 -55 0
-40 -54 55 0
40 54 55 0
56 -45 0
56 -14 0
45 14 -56 0
-57 55 0
-57 -56 0
-55 56 57 0
59 58 0
59 37 0
-58 -37 -59 0
60 29 0
60 -11 0
-29 11 -60 0
-60 2 -61 0
60 -2 -61 0
-60 -2 61 0
60 2 61 0
-62 14 0
-62 60 0
-14 -60 62 0
-63 -62 0
-63 -18 0
62 18 63 0
-64 44 0
-64 63 0
-44 -63 64 0
65 28 0
65 64 0
-28 -64 -65 0
-66 52 0
-66 65 0
-52 -65 66 0
-67 61 0
-67 -66 0
-61 66 67 0
-68 -59 0
-68 -67 0
59 67 68 0
69 -57 0
69 68 0
57 -68 -69 0
-70 35 0
-70 -69 0
-35 69 70 0
-31 23 -71 0
31 -23 -71 0
-31 -23 71 0
31 23 71 0
-72 70 0
-72 71 0
-70 -71 72 0
2 25 -73 0
-2 -25 -73 0
2 -25 73 0
-2 25 73 0
-73 5 -74 0
73 -5 -74 0
-73 -5 74 0
73 5 74 0
16 -74 -75 0
-16 74 -75 0
16 74 75 0
-16 -74 75 0
76 -72 0
76 75 0
72 -75 -76 0
-5 44 -77 0
5 -44 -77 0
-5 -44 77 0
5 44 77 0
-77 -44 -78 0
77 44 -78 0
-77 44 78 0
77 -44 78 0
-25 2 -79 0
25 -2 -79 0
-25 -2 79 0
25 2 79 0
4 -12 -80 0
-4 12 -80 0
4 12 80 0
-4 -12 80 0
12 80 -81 0
-12 -80 -81 0
12 -80 81 0
-12 80 81 0
-79 -81 -82 0
79 81 -82 0
-79 81 82 0
79 -81 82 0
83 10 0
83 45 0
-10 -45 -83 0
84 -18 0
84 63 0
18 -63 -84 0
-84 45 -85 0
84 -45 -85 0
-84 -45 85 0
84 45 85 0
-83 -85 -86 0
83 85 -86 0
-83 85 86 0
83 -85 86 0
-3 18 -87 0
3 -18 -87 0
-3 -18 87 0
3 18 87 0
-88 -86 0
-88 -87 0
86 87 88 0
89 -14 0
89 30 0
14 -30 -89 0
-90 -21 0
-90 -89 0
21 89 90 0
43 90 -91 0
-43 -90 -91 0
43 -90 91 0
-43 90 91 0
-92 1 0
-92 2 0
-1 -2 92 0
-93 -27 0
-93 -92 0
27 92 93 0
-94 -46 0
-94 -48 0
46 48 94 0
-95 60 0
-95 94 0
-60 -94 95 0
96 93 0
96 95 0
-93 -95 -96 0
37 -2 -97 0
-37 2 -97 0
37 2 97 0
-37 -2 97 0
98 -97 0
98 13 0
97 -13 -98 0
-99 -98 0
-99 50 0
98 -50 99 0
100 96 0
100 99 0
-96 -99 -100 0
-91 100 -101 0
91 -100 -101 0
-91 -100 101 0
91 100 101 0
-2 15 -102 0
2 -15 -102 0
-2 -15 102 0
2 15 102 0
103 -102 0
103 -50 0
102 50 -103 0
-44 -103 -104 0
44 103 -104 0
-44 103 104 0
44 -103 104 0
105 -101 0
105 -104 0
101 104 -105 0
88 105 -106 0
-88 -105 -106 0
88 -105 106 0
-88 105 106 0
-107 51 0
-107 -64 0
-51 64 107 0
108 21 0
108 18 0
-21 -18 -108 0
-109 -108 0
-109 -89 0
108 89 109 0
110 -80 0
110 -109 0
80 109 -110 0
111 107 0
111 110 0
-107 -110 -111 0
-112 -22 0
-112 -77 0
22 77 112 0
-113 -112 0
-113 90 0
112 -90 113 0
114 -44 0
114 -49 0
44 49 -114 0
-115 113 0
-115 114 0
-113 -114 115 0
43 116 0
-43 116 0
6 116 -117 0
-6 -116 -117 0
6 -116 117 0
-6 116 117 0
118 115 0
118 -117 0
-115 117 -118 0
-119 -111 0
-119 -118 0
111 118 119 0
120 106 0
120 119 0
-106 -119 -120 0
-121 -82 0
-121 120 0
82 -120 121 0
-78 121 -122 0
78 -121 -122 0
-78 -121 122 0
78 121 122 0
123 -76 0
123 122 0
76 -122 -123 0
-89 -118 -11 65 90 0
101 -88 -5 0
-99 -19 0
66 -101 -81 68 85 -112 0
103 23 0
36 -34 -120 0
97 24 94 -33 0
24 -51 0
-113 -100 58 -12 0
-11 -44 -37 0
-90 -83 25 -53 -8 0
-43 -3 -69 73 0
-63 -92 91 59 68 118 0
123 46 63 0
-11 -79 48 30 0
55 -57 -83 87 -81 0
27 75 -36 0
55 -102 51 0
-103 -88 11 26 -8 -56 0
27 31 -7 -33 0
-51 62 0
-23 74 25 -7 -107 0
-122 -112 -84 97 -37 0
-80 30 29 0
62 118 0
-43 -13 117 0
-90 81 28 119 110 -73 0
-54 75 55 0
-23 -95 41 27 0
47 104 -84 -98 -40 -110 0
-36 47 76 0
28 -37 0
-102 99 4 33 -48 76 0
-21 110 -89 23 38 0
-63 -86 -114 -58 51 77 0
83 8 0
111 65 -90 -49 79 -32 0
-31 -11 0
-14 64 -111 -18 99 -68 0
-42 56 -97 0
-5 -30 100 -110 49 0
-19 40 -122 0
18 -64 33 0
90 1 56 0
52 62 -75 -65 -107 48 0
-117 15 -90 0
-83 42 122 0
70 -15 -32 -114 -84 0
-7 68 15 67 -46 0
-120 -61 24 89 50 0
-36 13 -43 0
32 70 -50 0
-19 -44 -43 -93 -49 0
-28 -92 46 74 0
-56 71 -80 -120 54 -118 0
99 121 0
45 49 85 0
103 -59 110 -104 -88 6 0
48 36 96 123 23 -122 0
121 36 -37 80 123 90 0
14 -83 8 0
81 -43 -80 -94 0
-67 84 5 -42 -88 -83 0
-51 -60 95 104 0
-43 71 40 85 -70 23 0
105 8 82 19 -76 0
-44 103 -88 35 121 0
50 -79 -10 -66 120 0
-56 4 0
88 98 -107 0
-31 10 -69 -79 8 -7 0
-86 72 0
-27 40 -82 -84 -50 -7 0
123 0
